;; Mutation-Based Equivalence Benchmark
;; Source:     AutomatArk / instance06999.smt2
;; Mutations:  range_shrink_hi, range_shrink_lo, literal_char_dec
;; Status:     sat
;;
;; Original regex vs mutated regex
;; Equivalence check: unsat ⟺ L(R1) = L(R2)

(set-info :smt-lib-version 2.6)
(set-info :category "mutation")
(set-info :status sat)
(set-logic QF_S)

(declare-const x String)

;; R1: original
;; R2: mutated (range_shrink_hi, range_shrink_lo, literal_char_dec)
(assert
  (str.in_re x
    (re.union (re.inter (re.++ (re.opt (re.union (re.++ (str.to_re "(") ((_ re.loop 2 2) (re.range "0" "9")) (str.to_re ")") (re.opt (str.to_re " "))) (re.++ ((_ re.loop 2 2) (re.range "0" "9")) (str.to_re "/")))) ((_ re.loop 2 2) (re.range "0" "9")) (str.to_re "/") ((_ re.loop 4 4) (re.range "0" "9")) (str.to_re " \u{a}") (re.range "0" "2") (re.range "0" "9") (str.to_re ":") (re.range "0" "6") (re.range "0" "9")) (re.comp (re.++ (re.opt (re.union (re.++ (str.to_re "'") ((_ re.loop 2 2) (re.range "0" "9")) (str.to_re ")") (re.opt (str.to_re " "))) (re.++ ((_ re.loop 2 2) (re.range "0" "9")) (str.to_re "/")))) ((_ re.loop 2 2) (re.range "0" "9")) (str.to_re "/") ((_ re.loop 4 4) (re.range "1" "9")) (str.to_re " \u{a}") (re.range "0" "1") (re.range "0" "9") (str.to_re ":") (re.range "0" "6") (re.range "0" "9")))) (re.inter (re.comp (re.++ (re.opt (re.union (re.++ (str.to_re "(") ((_ re.loop 2 2) (re.range "0" "9")) (str.to_re ")") (re.opt (str.to_re " "))) (re.++ ((_ re.loop 2 2) (re.range "0" "9")) (str.to_re "/")))) ((_ re.loop 2 2) (re.range "0" "9")) (str.to_re "/") ((_ re.loop 4 4) (re.range "0" "9")) (str.to_re " \u{a}") (re.range "0" "2") (re.range "0" "9") (str.to_re ":") (re.range "0" "6") (re.range "0" "9"))) (re.++ (re.opt (re.union (re.++ (str.to_re "'") ((_ re.loop 2 2) (re.range "0" "9")) (str.to_re ")") (re.opt (str.to_re " "))) (re.++ ((_ re.loop 2 2) (re.range "0" "9")) (str.to_re "/")))) ((_ re.loop 2 2) (re.range "0" "9")) (str.to_re "/") ((_ re.loop 4 4) (re.range "1" "9")) (str.to_re " \u{a}") (re.range "0" "1") (re.range "0" "9") (str.to_re ":") (re.range "0" "6") (re.range "0" "9"))))))

(check-sat)
(exit)
